157
0 129 60 78 127 50 18 105 124 104 
6 24 12 133 55 9 114 117 86 45 
96 13 130 51 40 152 28 27 99 92 
131 34 71 23 64 91 84 10 146 83 
19 82 46 58 15 89 107 116 115 95 
113 61 145 122 153 118 126 151 97 37 
88 3 31 57 120 7 85 123 43 149 
16 21 68 137 110 49 138 139 1 144 
17 29 134 8 62 56 4 108 142 41 
32 109 132 54 33 147 47 20 36 73 
125 42 128 14 155 70 101 30 102 59 
38 150 26 25 135 81 5 140 72 156 
35 98 44 76 77 148 69 53 103 48 
93 119 106 22 75 111 87 66 65 63 
79 141 90 143 112 154 74 80 100 67 
11 39 121 94 2 52 136 
